unsat
(:added-eqs                   2461920
 :arith-eq-adapter            4629
 :arith-bound-propagations-lp 189259
 :arith-conflicts             530
 :arith-diseq                 210231
 :arith-fixed-eqs             283247
 :arith-lower                 172743
 :arith-make-feasible         83970
 :arith-max-columns           1457
 :arith-max-rows              856
 :arith-offset-eqs            97069
 :arith-upper                 321865
 :binary-propagations         11011008
 :conflicts                   23502
 :decisions                   1475092
 :del-clause                  28272
 :elim-unconstrained          2
 :max-memory                  58.85
 :memory                      37.38
 :minimized-lits              209609
 :mk-bool-var                 25008
 :mk-clause                   35556
 :mk-clause-binary            65278
 :num-allocs                  1263506695
 :num-checks                  1
 :propagations                14392929
 :restarts                    136
 :rlimit-count                46353408
 :time                        38.94
 :total-time                  39.26)
